27
4.2 71.7 5
27.3 84.8 2.8
39 57.9 3.3
87 91 1.1
68.1 97.7 4.7
38.3 70.7 2.8
98.7 28.7 5.5
59.1 38 1.4
47.3 96.1 5.9
10 59.5 2
59.9 71.5 1.7
79.5 26.5 5.9
79.1 39.4 2.9
15.2 10.3 4.4
34.1 97.3 5.4
35.5 87.5 4.4
61.5 68.5 1.2
66.7 86.8 4.1
70.6 20.1 5.9
63 37 3.6
43.2 74.3 5
86 87.5 5.6
59 52.3 2.3
48.7 98.7 3.6
28 13.8 4.4
55.8 7 5.5
80.5 57.9 1.2
5
3 21
5 20
7 19
8 23
11 18
2
3 21 
